(declare-fun file_1_/usr/lib/x86_64-linux-gnu/gconv/gconv-modules.cache_0_120_1024
             ()
             (_ BitVec 1024))
(declare-fun mem_c0089d6f_215_1032 () (_ BitVec 1032))
(declare-fun strlen_216_64 () (_ BitVec 64))
(declare-fun mem_c00afe73_510_16 () (_ BitVec 16))
(declare-fun mem_7fffffffffefab0_118_64 () (_ BitVec 64))
(declare-fun mem_c00ab34b_410_16 () (_ BitVec 16))
(declare-fun mem_c00a1cfb_240_16 () (_ BitVec 16))
(declare-fun mem_c009d1d3_225_16 () (_ BitVec 16))
(declare-fun mem_c00986ab_205_16 () (_ BitVec 16))
(declare-fun mem_c0093b83_196_16 () (_ BitVec 16))
(declare-fun mem_c00cefff_194_8 () (_ BitVec 8))
(declare-fun mem_c00cf000_195_8 () (_ BitVec 8))
(assert (let ((a!1 (ite (= #x00 ((_ extract 567 560) mem_c0089d6f_215_1032))
                (bvadd #x00000000c008003a
                       (concat #x000000000000 mem_c00986ab_205_16))
                (ite (= #x00 ((_ extract 559 552) mem_c0089d6f_215_1032))
                     (bvadd #x00000000c008003b
                            (concat #x000000000000 mem_c00986ab_205_16))
                     #x0000000000000000)))
      (a!32 (or (not (= #x55 ((_ extract 1031 1024) mem_c0089d6f_215_1032)))
                (not (= #x46 ((_ extract 1015 1008) mem_c0089d6f_215_1032)))
                (not (= #x38 ((_ extract 999 992) mem_c0089d6f_215_1032)))
                (not (= #x2f ((_ extract 991 984) mem_c0089d6f_215_1032)))
                (not (= #x0000000000000007 strlen_216_64))
                (not (= #x2f ((_ extract 983 976) mem_c0089d6f_215_1032)))
                (not (= #x2d ((_ extract 1007 1000) mem_c0089d6f_215_1032)))
                (not (= #x54 ((_ extract 1023 1016) mem_c0089d6f_215_1032))))))
(let ((a!2 (ite (= #x00 ((_ extract 583 576) mem_c0089d6f_215_1032))
                (bvadd #x00000000c0080038
                       (concat #x000000000000 mem_c00986ab_205_16))
                (ite (= #x00 ((_ extract 575 568) mem_c0089d6f_215_1032))
                     (bvadd #x00000000c0080039
                            (concat #x000000000000 mem_c00986ab_205_16))
                     a!1))))
(let ((a!3 (ite (= #x00 ((_ extract 599 592) mem_c0089d6f_215_1032))
                (bvadd #x00000000c0080036
                       (concat #x000000000000 mem_c00986ab_205_16))
                (ite (= #x00 ((_ extract 591 584) mem_c0089d6f_215_1032))
                     (bvadd #x00000000c0080037
                            (concat #x000000000000 mem_c00986ab_205_16))
                     a!2))))
(let ((a!4 (ite (= #x00 ((_ extract 615 608) mem_c0089d6f_215_1032))
                (bvadd #x00000000c0080034
                       (concat #x000000000000 mem_c00986ab_205_16))
                (ite (= #x00 ((_ extract 607 600) mem_c0089d6f_215_1032))
                     (bvadd #x00000000c0080035
                            (concat #x000000000000 mem_c00986ab_205_16))
                     a!3))))
(let ((a!5 (ite (= #x00 ((_ extract 631 624) mem_c0089d6f_215_1032))
                (bvadd #x00000000c0080032
                       (concat #x000000000000 mem_c00986ab_205_16))
                (ite (= #x00 ((_ extract 623 616) mem_c0089d6f_215_1032))
                     (bvadd #x00000000c0080033
                            (concat #x000000000000 mem_c00986ab_205_16))
                     a!4))))
(let ((a!6 (ite (= #x00 ((_ extract 647 640) mem_c0089d6f_215_1032))
                (bvadd #x00000000c0080030
                       (concat #x000000000000 mem_c00986ab_205_16))
                (ite (= #x00 ((_ extract 639 632) mem_c0089d6f_215_1032))
                     (bvadd #x00000000c0080031
                            (concat #x000000000000 mem_c00986ab_205_16))
                     a!5))))
(let ((a!7 (ite (= #x00 ((_ extract 663 656) mem_c0089d6f_215_1032))
                (bvadd #x00000000c008002e
                       (concat #x000000000000 mem_c00986ab_205_16))
                (ite (= #x00 ((_ extract 655 648) mem_c0089d6f_215_1032))
                     (bvadd #x00000000c008002f
                            (concat #x000000000000 mem_c00986ab_205_16))
                     a!6))))
(let ((a!8 (ite (= #x00 ((_ extract 679 672) mem_c0089d6f_215_1032))
                (bvadd #x00000000c008002c
                       (concat #x000000000000 mem_c00986ab_205_16))
                (ite (= #x00 ((_ extract 671 664) mem_c0089d6f_215_1032))
                     (bvadd #x00000000c008002d
                            (concat #x000000000000 mem_c00986ab_205_16))
                     a!7))))
(let ((a!9 (ite (= #x00 ((_ extract 695 688) mem_c0089d6f_215_1032))
                (bvadd #x00000000c008002a
                       (concat #x000000000000 mem_c00986ab_205_16))
                (ite (= #x00 ((_ extract 687 680) mem_c0089d6f_215_1032))
                     (bvadd #x00000000c008002b
                            (concat #x000000000000 mem_c00986ab_205_16))
                     a!8))))
(let ((a!10 (ite (= #x00 ((_ extract 711 704) mem_c0089d6f_215_1032))
                 (bvadd #x00000000c0080028
                        (concat #x000000000000 mem_c00986ab_205_16))
                 (ite (= #x00 ((_ extract 703 696) mem_c0089d6f_215_1032))
                      (bvadd #x00000000c0080029
                             (concat #x000000000000 mem_c00986ab_205_16))
                      a!9))))
(let ((a!11 (ite (= #x00 ((_ extract 727 720) mem_c0089d6f_215_1032))
                 (bvadd #x00000000c0080026
                        (concat #x000000000000 mem_c00986ab_205_16))
                 (ite (= #x00 ((_ extract 719 712) mem_c0089d6f_215_1032))
                      (bvadd #x00000000c0080027
                             (concat #x000000000000 mem_c00986ab_205_16))
                      a!10))))
(let ((a!12 (ite (= #x00 ((_ extract 743 736) mem_c0089d6f_215_1032))
                 (bvadd #x00000000c0080024
                        (concat #x000000000000 mem_c00986ab_205_16))
                 (ite (= #x00 ((_ extract 735 728) mem_c0089d6f_215_1032))
                      (bvadd #x00000000c0080025
                             (concat #x000000000000 mem_c00986ab_205_16))
                      a!11))))
(let ((a!13 (ite (= #x00 ((_ extract 759 752) mem_c0089d6f_215_1032))
                 (bvadd #x00000000c0080022
                        (concat #x000000000000 mem_c00986ab_205_16))
                 (ite (= #x00 ((_ extract 751 744) mem_c0089d6f_215_1032))
                      (bvadd #x00000000c0080023
                             (concat #x000000000000 mem_c00986ab_205_16))
                      a!12))))
(let ((a!14 (ite (= #x00 ((_ extract 775 768) mem_c0089d6f_215_1032))
                 (bvadd #x00000000c0080020
                        (concat #x000000000000 mem_c00986ab_205_16))
                 (ite (= #x00 ((_ extract 767 760) mem_c0089d6f_215_1032))
                      (bvadd #x00000000c0080021
                             (concat #x000000000000 mem_c00986ab_205_16))
                      a!13))))
(let ((a!15 (ite (= #x00 ((_ extract 791 784) mem_c0089d6f_215_1032))
                 (bvadd #x00000000c008001e
                        (concat #x000000000000 mem_c00986ab_205_16))
                 (ite (= #x00 ((_ extract 783 776) mem_c0089d6f_215_1032))
                      (bvadd #x00000000c008001f
                             (concat #x000000000000 mem_c00986ab_205_16))
                      a!14))))
(let ((a!16 (ite (= #x00 ((_ extract 807 800) mem_c0089d6f_215_1032))
                 (bvadd #x00000000c008001c
                        (concat #x000000000000 mem_c00986ab_205_16))
                 (ite (= #x00 ((_ extract 799 792) mem_c0089d6f_215_1032))
                      (bvadd #x00000000c008001d
                             (concat #x000000000000 mem_c00986ab_205_16))
                      a!15))))
(let ((a!17 (ite (= #x00 ((_ extract 823 816) mem_c0089d6f_215_1032))
                 (bvadd #x00000000c008001a
                        (concat #x000000000000 mem_c00986ab_205_16))
                 (ite (= #x00 ((_ extract 815 808) mem_c0089d6f_215_1032))
                      (bvadd #x00000000c008001b
                             (concat #x000000000000 mem_c00986ab_205_16))
                      a!16))))
(let ((a!18 (ite (= #x00 ((_ extract 839 832) mem_c0089d6f_215_1032))
                 (bvadd #x00000000c0080018
                        (concat #x000000000000 mem_c00986ab_205_16))
                 (ite (= #x00 ((_ extract 831 824) mem_c0089d6f_215_1032))
                      (bvadd #x00000000c0080019
                             (concat #x000000000000 mem_c00986ab_205_16))
                      a!17))))
(let ((a!19 (ite (= #x00 ((_ extract 855 848) mem_c0089d6f_215_1032))
                 (bvadd #x00000000c0080016
                        (concat #x000000000000 mem_c00986ab_205_16))
                 (ite (= #x00 ((_ extract 847 840) mem_c0089d6f_215_1032))
                      (bvadd #x00000000c0080017
                             (concat #x000000000000 mem_c00986ab_205_16))
                      a!18))))
(let ((a!20 (ite (= #x00 ((_ extract 871 864) mem_c0089d6f_215_1032))
                 (bvadd #x00000000c0080014
                        (concat #x000000000000 mem_c00986ab_205_16))
                 (ite (= #x00 ((_ extract 863 856) mem_c0089d6f_215_1032))
                      (bvadd #x00000000c0080015
                             (concat #x000000000000 mem_c00986ab_205_16))
                      a!19))))
(let ((a!21 (ite (= #x00 ((_ extract 887 880) mem_c0089d6f_215_1032))
                 (bvadd #x00000000c0080012
                        (concat #x000000000000 mem_c00986ab_205_16))
                 (ite (= #x00 ((_ extract 879 872) mem_c0089d6f_215_1032))
                      (bvadd #x00000000c0080013
                             (concat #x000000000000 mem_c00986ab_205_16))
                      a!20))))
(let ((a!22 (ite (= #x00 ((_ extract 903 896) mem_c0089d6f_215_1032))
                 (bvadd #x00000000c0080010
                        (concat #x000000000000 mem_c00986ab_205_16))
                 (ite (= #x00 ((_ extract 895 888) mem_c0089d6f_215_1032))
                      (bvadd #x00000000c0080011
                             (concat #x000000000000 mem_c00986ab_205_16))
                      a!21))))
(let ((a!23 (ite (= #x00 ((_ extract 919 912) mem_c0089d6f_215_1032))
                 (bvadd #x00000000c008000e
                        (concat #x000000000000 mem_c00986ab_205_16))
                 (ite (= #x00 ((_ extract 911 904) mem_c0089d6f_215_1032))
                      (bvadd #x00000000c008000f
                             (concat #x000000000000 mem_c00986ab_205_16))
                      a!22))))
(let ((a!24 (ite (= #x00 ((_ extract 935 928) mem_c0089d6f_215_1032))
                 (bvadd #x00000000c008000c
                        (concat #x000000000000 mem_c00986ab_205_16))
                 (ite (= #x00 ((_ extract 927 920) mem_c0089d6f_215_1032))
                      (bvadd #x00000000c008000d
                             (concat #x000000000000 mem_c00986ab_205_16))
                      a!23))))
(let ((a!25 (ite (= #x00 ((_ extract 951 944) mem_c0089d6f_215_1032))
                 (bvadd #x00000000c008000a
                        (concat #x000000000000 mem_c00986ab_205_16))
                 (ite (= #x00 ((_ extract 943 936) mem_c0089d6f_215_1032))
                      (bvadd #x00000000c008000b
                             (concat #x000000000000 mem_c00986ab_205_16))
                      a!24))))
(let ((a!26 (ite (= #x00 ((_ extract 967 960) mem_c0089d6f_215_1032))
                 (bvadd #x00000000c0080008
                        (concat #x000000000000 mem_c00986ab_205_16))
                 (ite (= #x00 ((_ extract 959 952) mem_c0089d6f_215_1032))
                      (bvadd #x00000000c0080009
                             (concat #x000000000000 mem_c00986ab_205_16))
                      a!25))))
(let ((a!27 (ite (= #x00 ((_ extract 983 976) mem_c0089d6f_215_1032))
                 (bvadd #x00000000c0080006
                        (concat #x000000000000 mem_c00986ab_205_16))
                 (ite (= #x00 ((_ extract 975 968) mem_c0089d6f_215_1032))
                      (bvadd #x00000000c0080007
                             (concat #x000000000000 mem_c00986ab_205_16))
                      a!26))))
(let ((a!28 (ite (= #x00 ((_ extract 999 992) mem_c0089d6f_215_1032))
                 (bvadd #x00000000c0080004
                        (concat #x000000000000 mem_c00986ab_205_16))
                 (ite (= #x00 ((_ extract 991 984) mem_c0089d6f_215_1032))
                      (bvadd #x00000000c0080005
                             (concat #x000000000000 mem_c00986ab_205_16))
                      a!27))))
(let ((a!29 (ite (= #x00 ((_ extract 1015 1008) mem_c0089d6f_215_1032))
                 (bvadd #x00000000c0080002
                        (concat #x000000000000 mem_c00986ab_205_16))
                 (ite (= #x00 ((_ extract 1007 1000) mem_c0089d6f_215_1032))
                      (bvadd #x00000000c0080003
                             (concat #x000000000000 mem_c00986ab_205_16))
                      a!28))))
(let ((a!30 (ite (= #x00 ((_ extract 1031 1024) mem_c0089d6f_215_1032))
                 (concat #x00000000c008 mem_c00986ab_205_16)
                 (ite (= #x00 ((_ extract 1023 1016) mem_c0089d6f_215_1032))
                      (bvadd #x00000000c0080001
                             (concat #x000000000000 mem_c00986ab_205_16))
                      a!29))))
(let ((a!31 (= (bvadd a!30
                      (bvmul #xffffffffffffffff
                             (concat #x000000000000 mem_c00986ab_205_16)))
               (bvadd #x00000000c0080000 strlen_216_64))))
  (and (bvule ((_ extract 15 0) mem_7fffffffffefab0_118_64)
              (concat mem_c00cf000_195_8 mem_c00cefff_194_8))
       (bvule #x000000000004f92b mem_7fffffffffefab0_118_64)
       (bvule ((_ extract 15 0) mem_7fffffffffefab0_118_64) mem_c0093b83_196_16)
       (not (bvule ((_ extract 15 0) mem_7fffffffffefab0_118_64)
                   mem_c00986ab_205_16))
       a!31
       (bvule #xc0089d6f (concat #xc008 mem_c00986ab_205_16))
       (bvule (concat #xc008 mem_c00986ab_205_16) #xc0089d6f)
       (bvule ((_ extract 15 0) mem_7fffffffffefab0_118_64) mem_c009d1d3_225_16)
       (bvule ((_ extract 15 0) mem_7fffffffffefab0_118_64) mem_c00a1cfb_240_16)
       (= #x0000 ((_ extract 31 16) mem_7fffffffffefab0_118_64))
       (bvule ((_ extract 15 0) mem_7fffffffffefab0_118_64) mem_c00ab34b_410_16)
       (not (bvule ((_ extract 15 0) mem_7fffffffffefab0_118_64)
                   mem_c00afe73_510_16))
       (bvule #xc0080001 (concat #xc008 mem_c00afe73_510_16))
       (or (= #x00 ((_ extract 879 872) mem_c0089d6f_215_1032))
           (= #x00 ((_ extract 655 648) mem_c0089d6f_215_1032))
           (= #x00 ((_ extract 951 944) mem_c0089d6f_215_1032))
           (= #x00 ((_ extract 711 704) mem_c0089d6f_215_1032))
           (= #x00 ((_ extract 967 960) mem_c0089d6f_215_1032))
           (= #x00 ((_ extract 607 600) mem_c0089d6f_215_1032))
           (= #x00 ((_ extract 615 608) mem_c0089d6f_215_1032))
           (= #x00 ((_ extract 991 984) mem_c0089d6f_215_1032))
           (= #x00 ((_ extract 599 592) mem_c0089d6f_215_1032))
           (= #x00 ((_ extract 999 992) mem_c0089d6f_215_1032))
           (= #x00 ((_ extract 1007 1000) mem_c0089d6f_215_1032))
           (= #x00 ((_ extract 1015 1008) mem_c0089d6f_215_1032))
           (= #x00 ((_ extract 567 560) mem_c0089d6f_215_1032))
           (= #x00 ((_ extract 1023 1016) mem_c0089d6f_215_1032))
           (= #x00 ((_ extract 1031 1024) mem_c0089d6f_215_1032))
           (= #x00 ((_ extract 663 656) mem_c0089d6f_215_1032))
           (= #x00 ((_ extract 671 664) mem_c0089d6f_215_1032))
           (= #x00 ((_ extract 959 952) mem_c0089d6f_215_1032))
           (= #x00 ((_ extract 943 936) mem_c0089d6f_215_1032))
           (= #x00 ((_ extract 935 928) mem_c0089d6f_215_1032))
           (= #x00 ((_ extract 719 712) mem_c0089d6f_215_1032))
           (= #x00 ((_ extract 863 856) mem_c0089d6f_215_1032))
           (= #x00 ((_ extract 839 832) mem_c0089d6f_215_1032))
           (= #x00 ((_ extract 775 768) mem_c0089d6f_215_1032))
           (= #x00 ((_ extract 919 912) mem_c0089d6f_215_1032))
           (= #x00 ((_ extract 591 584) mem_c0089d6f_215_1032))
           (= #x00 ((_ extract 983 976) mem_c0089d6f_215_1032))
           (= #x00 ((_ extract 647 640) mem_c0089d6f_215_1032))
           (= #x00 ((_ extract 703 696) mem_c0089d6f_215_1032))
           (= #x00 ((_ extract 743 736) mem_c0089d6f_215_1032))
           (= #x00 ((_ extract 767 760) mem_c0089d6f_215_1032))
           (= #x00 ((_ extract 911 904) mem_c0089d6f_215_1032))
           (= #x00 ((_ extract 831 824) mem_c0089d6f_215_1032))
           (= #x00 ((_ extract 815 808) mem_c0089d6f_215_1032))
           (= #x00 ((_ extract 807 800) mem_c0089d6f_215_1032))
           (= #x00 ((_ extract 727 720) mem_c0089d6f_215_1032))
           (= #x00 ((_ extract 975 968) mem_c0089d6f_215_1032))
           (= #x00 ((_ extract 759 752) mem_c0089d6f_215_1032))
           (= #x00 ((_ extract 751 744) mem_c0089d6f_215_1032))
           (= #x00 ((_ extract 847 840) mem_c0089d6f_215_1032))
           (= #x00 ((_ extract 791 784) mem_c0089d6f_215_1032))
           (= #x00 ((_ extract 735 728) mem_c0089d6f_215_1032))
           (= #x00 ((_ extract 679 672) mem_c0089d6f_215_1032))
           (= #x00 ((_ extract 687 680) mem_c0089d6f_215_1032))
           (= #x00 ((_ extract 695 688) mem_c0089d6f_215_1032))
           (= #x00 ((_ extract 583 576) mem_c0089d6f_215_1032))
           (= #x00 ((_ extract 631 624) mem_c0089d6f_215_1032))
           (= #x00 ((_ extract 623 616) mem_c0089d6f_215_1032))
           (= #x00 ((_ extract 927 920) mem_c0089d6f_215_1032))
           (= #x00 ((_ extract 903 896) mem_c0089d6f_215_1032))
           (= #x00 ((_ extract 783 776) mem_c0089d6f_215_1032))
           (= #x00 ((_ extract 799 792) mem_c0089d6f_215_1032))
           (= #x00 ((_ extract 855 848) mem_c0089d6f_215_1032))
           (= #x00 ((_ extract 871 864) mem_c0089d6f_215_1032))
           (= #x00 ((_ extract 887 880) mem_c0089d6f_215_1032))
           (= #x00 ((_ extract 895 888) mem_c0089d6f_215_1032))
           (= #x00 ((_ extract 823 816) mem_c0089d6f_215_1032))
           (= #x00 ((_ extract 575 568) mem_c0089d6f_215_1032))
           (= #x00 ((_ extract 559 552) mem_c0089d6f_215_1032))
           (= #x00 ((_ extract 639 632) mem_c0089d6f_215_1032)))
       a!32
       (= #x03
          ((_ extract 1015 1008)
            file_1_/usr/lib/x86_64-linux-gnu/gconv/gconv-modules.cache_0_120_1024))
       (= #x24
          ((_ extract 1023 1016)
            file_1_/usr/lib/x86_64-linux-gnu/gconv/gconv-modules.cache_0_120_1024))
       (= #x01
          ((_ extract 1007 1000)
            file_1_/usr/lib/x86_64-linux-gnu/gconv/gconv-modules.cache_0_120_1024))
       (= #x20
          ((_ extract 999 992)
            file_1_/usr/lib/x86_64-linux-gnu/gconv/gconv-modules.cache_0_120_1024))
       (= #x00
          ((_ extract 991 984)
            file_1_/usr/lib/x86_64-linux-gnu/gconv/gconv-modules.cache_0_120_1024))
       (= #x00
          ((_ extract 983 976)
            file_1_/usr/lib/x86_64-linux-gnu/gconv/gconv-modules.cache_0_120_1024))
       (= #x87
          ((_ extract 975 968)
            file_1_/usr/lib/x86_64-linux-gnu/gconv/gconv-modules.cache_0_120_1024))
       (= #xf9
          ((_ extract 967 960)
            file_1_/usr/lib/x86_64-linux-gnu/gconv/gconv-modules.cache_0_120_1024))
       (= #xe9
          ((_ extract 959 952)
            file_1_/usr/lib/x86_64-linux-gnu/gconv/gconv-modules.cache_0_120_1024))
       (= #xff
          ((_ extract 951 944)
            file_1_/usr/lib/x86_64-linux-gnu/gconv/gconv-modules.cache_0_120_1024)))))))))))))))))))))))))))))))))))
(maximize (bvadd (concat #x000000000000 mem_c00afe73_510_16)
       (concat (concat #x000000000000
                       ((_ extract 983 976)
                         file_1_/usr/lib/x86_64-linux-gnu/gconv/gconv-modules.cache_0_120_1024))
               ((_ extract 991 984)
                 file_1_/usr/lib/x86_64-linux-gnu/gconv/gconv-modules.cache_0_120_1024))
       #x00000000c0080000))
(check-sat)